0 0 0 0
0 1 2 0
0 2 0 0
0 3 0 0
0 4 1 2
0 5 2 6
0 6 1 2
0 7 2 9
0 8 1 15
0 9 1 2
0 10 1 24
0 11 2 2
0 12 2 2
0 13 0 15
0 14 1 16
0 15 0 10
0 16 2 10
0 17 2 6
0 18 2 16
0 19 1 16
0 20 2 19
0 21 2 16
0 22 0 24
0 23 0 9
0 24 2 10
0 25 1 27
0 26 2 23
0 27 2 20
0 28 1 30
0 29 0 31
0 30 2 26
0 31 0 36
